####################################################################### 
# 
# This file contains crystal structure data downloaded from the 
# Cambridge Structural Database (CSD) hosted by the Cambridge 
# Crystallographic Data Centre (CCDC).
# 
# Full information about CCDC data access policies and citation 
# guidelines are available at http://www.ccdc.cam.ac.uk/access/V1 
# 
# Audit and citation data items may have been added by the CCDC. 
# Please retain this information to preserve the provenance of 
# this file and to allow appropriate attribution of the data. 
# 
#######################################################################

data_1
_audit_block_doi                 10.5517/ccs7yjg
_database_code_depnum_ccdc_archive 'CCDC 722626'
loop_
_citation_id
_citation_doi
_citation_year
1 10.1002/anie.200901722 2009
_audit_update_record             
;
2009-03-03 deposited with the CCDC.	2021-07-14 downloaded from the CCDC.
;

_audit_creation_method           SHELXL-97
_chemical_name_systematic        
;
?
;
_chemical_name_common            ?
_chemical_melting_point          ?
_chemical_formula_moiety         ?
_chemical_formula_sum            'C101 H142 Cl10 O18'
_chemical_formula_weight         1998.65

loop_
_atom_type_symbol
_atom_type_description
_atom_type_scat_dispersion_real
_atom_type_scat_dispersion_imag
_atom_type_scat_source
C C 0.0033 0.0016 'International Tables Vol C Tables 4.2.6.8 and 6.1.1.4'
H H 0.0000 0.0000 'International Tables Vol C Tables 4.2.6.8 and 6.1.1.4'
O O 0.0106 0.0060 'International Tables Vol C Tables 4.2.6.8 and 6.1.1.4'
Cl Cl 0.1484 0.1585 'International Tables Vol C Tables 4.2.6.8 and 6.1.1.4'

_symmetry_cell_setting           Trigonal
_symmetry_space_group_name_H-M   P-3

loop_
_symmetry_equiv_pos_as_xyz
'x, y, z'
'-y, x-y, z'
'-x+y, -x, z'
'-x, -y, -z'
'y, -x+y, -z'
'x-y, x, -z'

_cell_length_a                   25.9805(8)
_cell_length_b                   25.9805(8)
_cell_length_c                   13.6003(7)
_cell_angle_alpha                90.00
_cell_angle_beta                 90.00
_cell_angle_gamma                120.00
_cell_volume                     7950.1(5)
_cell_formula_units_Z            3
_cell_measurement_temperature    100(2)
_cell_measurement_reflns_used    9401
_cell_measurement_theta_min      2.72
_cell_measurement_theta_max      22.83

_exptl_crystal_description       needle
_exptl_crystal_colour            colorless
_exptl_crystal_size_max          0.25
_exptl_crystal_size_mid          0.08
_exptl_crystal_size_min          0.04
_exptl_crystal_density_meas      ?
_exptl_crystal_density_diffrn    1.252
_exptl_crystal_density_method    'not measured'
_exptl_crystal_F_000             3186
_exptl_absorpt_coefficient_mu    0.325
_exptl_absorpt_correction_type   multi-scan
_exptl_absorpt_correction_T_min  0.9231
_exptl_absorpt_correction_T_max  0.9871
_exptl_absorpt_process_details   'SADABS (Sheldrick, V2.10)'

_exptl_special_details           
;
'Blessing, Acta Cryst. (1995) A51, 33-38'
;

_diffrn_ambient_temperature      100(2)
_diffrn_radiation_wavelength     0.71073
_diffrn_radiation_type           MoK\a
_diffrn_radiation_source         'fine-focus sealed tube'
_diffrn_radiation_monochromator  graphite
_diffrn_measurement_device_type  'CCD area detector'
_diffrn_measurement_method       'phi and omega scans'
_diffrn_detector_area_resol_mean 512x512
_diffrn_standards_number         ?
_diffrn_standards_interval_count ?
_diffrn_standards_interval_time  ?
_diffrn_standards_decay_%        ?
_diffrn_reflns_number            70205
_diffrn_reflns_av_R_equivalents  0.0788
_diffrn_reflns_av_sigmaI/netI    0.0985
_diffrn_reflns_limit_h_min       -35
_diffrn_reflns_limit_h_max       34
_diffrn_reflns_limit_k_min       -35
_diffrn_reflns_limit_k_max       36
_diffrn_reflns_limit_l_min       -18
_diffrn_reflns_limit_l_max       18
_diffrn_reflns_theta_min         0.90
_diffrn_reflns_theta_max         30.01
_reflns_number_total             15152
_reflns_number_gt                9512
_reflns_threshold_expression     >2sigma(I)

_computing_data_collection       'Bruker APEX2'
_computing_cell_refinement       'Bruker APEX2'
_computing_data_reduction        'Bruker SAINT'
_computing_structure_solution    'SHELXS-97 (Sheldrick, 1990)'
_computing_structure_refinement  'SHELXL-97 (Sheldrick, 1997)'
_computing_molecular_graphics    'Bruker SHELXTL'
_computing_publication_material  'Bruker SHELXTL'

_refine_special_details          
;
Refinement of F^2^ against ALL reflections. The weighted R-factor wR and
goodness of fit S are based on F^2^, conventional R-factors R are based
on F, with F set to zero for negative F^2^. The threshold expression of
F^2^ > 2sigma(F^2^) is used only for calculating R-factors(gt) etc. and is
not relevant to the choice of reflections for refinement. R-factors based
on F^2^ are statistically about twice as large as those based on F, and R-
factors based on ALL data will be even larger.
;

_refine_ls_structure_factor_coef Fsqd
_refine_ls_matrix_type           full
_refine_ls_weighting_scheme      calc
_refine_ls_weighting_details     
'calc w=1/[\s^2^(Fo^2^)+(0.1255P)^2^+0.7021P] where P=(Fo^2^+2Fc^2^)/3'
_atom_sites_solution_primary     direct
_atom_sites_solution_secondary   difmap
_atom_sites_solution_hydrogens   geom
_refine_ls_hydrogen_treatment    constr
_refine_ls_extinction_method     none
_refine_ls_extinction_coef       ?
_refine_ls_number_reflns         15152
_refine_ls_number_parameters     622
_refine_ls_number_restraints     0
_refine_ls_R_factor_all          0.1323
_refine_ls_R_factor_gt           0.0684
_refine_ls_wR_factor_ref         0.2148
_refine_ls_wR_factor_gt          0.1756
_refine_ls_goodness_of_fit_ref   1.041
_refine_ls_restrained_S_all      1.041
_refine_ls_shift/su_max          0.001
_refine_ls_shift/su_mean         0.000

loop_
_atom_site_label
_atom_site_type_symbol
_atom_site_fract_x
_atom_site_fract_y
_atom_site_fract_z
_atom_site_U_iso_or_equiv
_atom_site_adp_type
_atom_site_occupancy
_atom_site_symmetry_multiplicity
_atom_site_calc_flag
_atom_site_refinement_flags
_atom_site_disorder_assembly
_atom_site_disorder_group
O1A O 0.90867(11) 0.10232(11) 0.40198(17) 0.0151(5) Uani 1 1 d . . .
O2A O 0.85190(15) 0.14568(15) 0.4055(2) 0.0329(7) Uani 1 1 d . . .
O3A O 0.89034(12) 0.13091(12) 0.26534(17) 0.0194(5) Uani 1 1 d . . .
C1A C 0.86670(16) 0.04502(17) 0.6538(2) 0.0169(7) Uani 1 1 d . . .
H1A H 0.8353 0.0121 0.6870 0.020 Uiso 1 1 calc R . .
C2A C 0.91515(17) 0.08662(16) 0.7078(2) 0.0170(7) Uani 1 1 d . . .
C3A C 0.95973(17) 0.13521(15) 0.6580(3) 0.0164(7) Uani 1 1 d . . .
H3A H 0.9929 0.1644 0.6940 0.020 Uiso 1 1 calc R . .
C4A C 0.95726(16) 0.14243(15) 0.5566(3) 0.0161(7) Uani 1 1 d . . .
C5A C 0.90890(16) 0.09850(16) 0.5057(2) 0.0141(7) Uani 1 1 d . . .
C6A C 0.86269(16) 0.05004(16) 0.5527(2) 0.0161(7) Uani 1 1 d . . .
C7A C 0.80776(16) 0.00457(17) 0.4966(2) 0.0186(7) Uani 1 1 d . . .
H7A1 H 0.7743 -0.0152 0.5435 0.022 Uiso 1 1 calc R . .
H7A2 H 0.7970 0.0259 0.4479 0.022 Uiso 1 1 calc R . .
C8A C 0.88082(17) 0.12871(17) 0.3617(2) 0.0182(7) Uani 1 1 d . . .
C9A C 0.91773(19) 0.07663(18) 0.8193(3) 0.0232(8) Uani 1 1 d . . .
C10A C 0.9231(2) 0.0203(2) 0.8325(3) 0.0319(10) Uani 1 1 d . . .
H10A H 0.9554 0.0234 0.7912 0.048 Uiso 1 1 calc R . .
H10B H 0.8856 -0.0149 0.8132 0.048 Uiso 1 1 calc R . .
H10C H 0.9315 0.0166 0.9016 0.048 Uiso 1 1 calc R . .
C11A C 0.85925(19) 0.0648(2) 0.8690(3) 0.0277(9) Uani 1 1 d . . .
H11A H 0.8592 0.0537 0.9379 0.042 Uiso 1 1 calc R . .
H11B H 0.8254 0.0324 0.8347 0.042 Uiso 1 1 calc R . .
H11C H 0.8562 0.1009 0.8660 0.042 Uiso 1 1 calc R . .
C12A C 0.9693(2) 0.1287(2) 0.8687(3) 0.0310(10) Uani 1 1 d . . .
H12A H 0.9651 0.1640 0.8618 0.046 Uiso 1 1 calc R . .
H12B H 1.0065 0.1361 0.8380 0.046 Uiso 1 1 calc R . .
H12C H 0.9698 0.1199 0.9387 0.046 Uiso 1 1 calc R . .
C13A C 0.86491(18) 0.15745(18) 0.1981(3) 0.0235(8) Uani 1 1 d . . .
C14A C 0.7976(2) 0.1209(3) 0.2006(4) 0.0450(13) Uani 1 1 d . . .
H14A H 0.7849 0.0793 0.1855 0.068 Uiso 1 1 calc R . .
H14B H 0.7810 0.1363 0.1516 0.068 Uiso 1 1 calc R . .
H14C H 0.7834 0.1234 0.2661 0.068 Uiso 1 1 calc R . .
C15A C 0.8889(3) 0.2215(2) 0.2244(3) 0.0403(12) Uani 1 1 d . . .
H15A H 0.8760 0.2403 0.1752 0.060 Uiso 1 1 calc R . .
H15B H 0.9324 0.2420 0.2261 0.060 Uiso 1 1 calc R . .
H15C H 0.8739 0.2242 0.2893 0.060 Uiso 1 1 calc R . .
C16A C 0.8875(2) 0.1515(2) 0.0980(3) 0.0381(12) Uani 1 1 d . . .
H16A H 0.8786 0.1105 0.0886 0.057 Uiso 1 1 calc R . .
H16B H 0.9306 0.1784 0.0944 0.057 Uiso 1 1 calc R . .
H16C H 0.8679 0.1619 0.0464 0.057 Uiso 1 1 calc R . .
O1B O 0.79202(10) 0.52612(10) 0.86895(16) 0.0115(5) Uani 1 1 d . . .
O2B O 0.84558(12) 0.62698(11) 0.87798(18) 0.0207(6) Uani 1 1 d . . .
O3B O 0.82040(11) 0.57422(10) 0.73423(16) 0.0167(5) Uani 1 1 d . . .
O4B O 0.59921(11) 0.45765(11) 1.06153(16) 0.0144(5) Uani 1 1 d . . .
O5B O 0.56658(12) 0.52371(11) 1.04879(17) 0.0189(5) Uani 1 1 d . . .
O6B O 0.57781(11) 0.48634(11) 1.19480(17) 0.0168(5) Uani 1 1 d . . .
C1B C 0.73992(15) 0.51557(14) 1.1237(2) 0.0116(6) Uani 1 1 d . . .
H1B H 0.7100 0.5184 1.1592 0.014 Uiso 1 1 calc R . .
C2B C 0.77785(15) 0.50051(14) 1.1739(2) 0.0125(6) Uani 1 1 d . . .
C3B C 0.82183(15) 0.49768(15) 1.1209(2) 0.0134(6) Uani 1 1 d . . .
H3B H 0.8484 0.4887 1.1546 0.016 Uiso 1 1 calc R . .
C4B C 0.82851(15) 0.50752(14) 1.0193(2) 0.0120(6) Uani 1 1 d . . .
C5B C 0.78883(15) 0.52120(14) 0.9728(2) 0.0117(6) Uani 1 1 d . . .
C6B C 0.74550(15) 0.52639(14) 1.0224(2) 0.0127(6) Uani 1 1 d . . .
C7B C 0.70571(15) 0.54508(15) 0.9691(2) 0.0135(6) Uani 1 1 d . . .
H7B1 H 0.6888 0.5606 1.0182 0.016 Uiso 1 1 calc R . .
H7B2 H 0.7305 0.5779 0.9234 0.016 Uiso 1 1 calc R . .
C8B C 0.65502(16) 0.49563(15) 0.9113(2) 0.0139(7) Uani 1 1 d . . .
C9B C 0.65875(15) 0.48940(15) 0.8100(2) 0.0139(7) Uani 1 1 d . . .
H9B H 0.6943 0.5161 0.7764 0.017 Uiso 1 1 calc R . .
C10B C 0.61130(16) 0.44463(15) 0.7566(2) 0.0130(7) Uani 1 1 d . . .
C11B C 0.55972(15) 0.40636(15) 0.8059(2) 0.0141(7) Uani 1 1 d . . .
H11D H 0.5275 0.3758 0.7702 0.017 Uiso 1 1 calc R . .
C12B C 0.55345(15) 0.41127(15) 0.9079(2) 0.0135(7) Uani 1 1 d . . .
C13B C 0.60235(15) 0.45518(15) 0.9580(2) 0.0123(6) Uani 1 1 d . . .
C14B C 0.49493(15) 0.37188(15) 0.9606(2) 0.0144(7) Uani 1 1 d . . .
H14D H 0.4869 0.3970 1.0057 0.017 Uiso 1 1 calc R . .
H14E H 0.4627 0.3551 0.9111 0.017 Uiso 1 1 calc R . .
C15B C 0.82290(15) 0.58163(15) 0.8310(2) 0.0140(7) Uani 1 1 d . . .
C16B C 0.57935(15) 0.49303(15) 1.0976(2) 0.0136(7) Uani 1 1 d . . .
C17B C 0.77076(16) 0.48559(15) 1.2837(2) 0.0143(7) Uani 1 1 d . . .
C18B C 0.72283(18) 0.49409(18) 1.3325(3) 0.0233(8) Uani 1 1 d . . .
H18A H 0.7314 0.5349 1.3219 0.035 Uiso 1 1 calc R . .
H18B H 0.7221 0.4865 1.4032 0.035 Uiso 1 1 calc R . .
H18C H 0.6841 0.4663 1.3039 0.035 Uiso 1 1 calc R . .
C19B C 0.75370(19) 0.41964(17) 1.2958(3) 0.0238(8) Uani 1 1 d . . .
H19A H 0.7151 0.3941 1.2646 0.036 Uiso 1 1 calc R . .
H19B H 0.7512 0.4099 1.3659 0.036 Uiso 1 1 calc R . .
H19C H 0.7840 0.4132 1.2646 0.036 Uiso 1 1 calc R . .
C20B C 0.82998(18) 0.52401(19) 1.3375(3) 0.0248(8) Uani 1 1 d . . .
H20A H 0.8608 0.5178 1.3079 0.037 Uiso 1 1 calc R . .
H20B H 0.8254 0.5127 1.4071 0.037 Uiso 1 1 calc R . .
H20C H 0.8414 0.5660 1.3318 0.037 Uiso 1 1 calc R . .
C21B C 0.61956(16) 0.43941(16) 0.6457(2) 0.0171(7) Uani 1 1 d . . .
C22B C 0.66781(18) 0.42182(19) 0.6322(3) 0.0241(8) Uani 1 1 d . . .
H22A H 0.7049 0.4519 0.6630 0.036 Uiso 1 1 calc R . .
H22B H 0.6745 0.4193 0.5619 0.036 Uiso 1 1 calc R . .
H22C H 0.6546 0.3831 0.6632 0.036 Uiso 1 1 calc R . .
C23B C 0.63973(17) 0.49904(17) 0.5947(3) 0.0211(8) Uani 1 1 d . . .
H23A H 0.6101 0.5113 0.6055 0.032 Uiso 1 1 calc R . .
H23B H 0.6440 0.4949 0.5240 0.032 Uiso 1 1 calc R . .
H23C H 0.6780 0.5291 0.6219 0.032 Uiso 1 1 calc R . .
C24B C 0.56270(17) 0.39290(19) 0.5967(3) 0.0249(8) Uani 1 1 d . . .
H24A H 0.5496 0.3541 0.6272 0.037 Uiso 1 1 calc R . .
H24B H 0.5700 0.3909 0.5265 0.037 Uiso 1 1 calc R . .
H24C H 0.5318 0.4037 0.6049 0.037 Uiso 1 1 calc R . .
C25B C 0.84660(17) 0.62689(15) 0.6675(2) 0.0180(7) Uani 1 1 d . . .
C26B C 0.81534(18) 0.66205(17) 0.6808(3) 0.0228(8) Uani 1 1 d . . .
H26A H 0.8238 0.6798 0.7466 0.034 Uiso 1 1 calc R . .
H26B H 0.7724 0.6356 0.6733 0.034 Uiso 1 1 calc R . .
H26C H 0.8295 0.6936 0.6311 0.034 Uiso 1 1 calc R . .
C27B C 0.8339(2) 0.59725(19) 0.5671(3) 0.0285(9) Uani 1 1 d . . .
H27A H 0.8487 0.6278 0.5157 0.043 Uiso 1 1 calc R . .
H27B H 0.7910 0.5710 0.5593 0.043 Uiso 1 1 calc R . .
H27C H 0.8539 0.5739 0.5617 0.043 Uiso 1 1 calc R . .
C28B C 0.91324(17) 0.66347(18) 0.6866(3) 0.0273(9) Uani 1 1 d . . .
H28A H 0.9313 0.6965 0.6397 0.041 Uiso 1 1 calc R . .
H28B H 0.9311 0.6382 0.6786 0.041 Uiso 1 1 calc R . .
H28C H 0.9202 0.6792 0.7538 0.041 Uiso 1 1 calc R . .
C29B C 0.54904(18) 0.51200(17) 1.2559(3) 0.0200(8) Uani 1 1 d . . .
C30B C 0.48330(18) 0.48196(19) 1.2275(3) 0.0262(9) Uani 1 1 d . . .
H30A H 0.4656 0.4387 1.2317 0.039 Uiso 1 1 calc R . .
H30B H 0.4797 0.4931 1.1601 0.039 Uiso 1 1 calc R . .
H30C H 0.4625 0.4949 1.2725 0.039 Uiso 1 1 calc R . .
C31B C 0.5814(2) 0.57873(18) 1.2465(3) 0.0263(9) Uani 1 1 d . . .
H31A H 0.6239 0.5946 1.2584 0.040 Uiso 1 1 calc R . .
H31B H 0.5657 0.5953 1.2950 0.040 Uiso 1 1 calc R . .
H31C H 0.5756 0.5897 1.1802 0.040 Uiso 1 1 calc R . .
C32B C 0.5569(2) 0.49300(19) 1.3590(3) 0.0278(9) Uani 1 1 d . . .
H32A H 0.5993 0.5096 1.3727 0.042 Uiso 1 1 calc R . .
H32B H 0.5367 0.4495 1.3624 0.042 Uiso 1 1 calc R . .
H32C H 0.5396 0.5078 1.4078 0.042 Uiso 1 1 calc R . .
Cl1 Cl 1.05929(6) 0.70370(6) 0.53203(11) 0.0459(3) Uani 1 1 d . . .
Cl2 Cl 0.96938(6) 0.58617(6) 0.46228(11) 0.0509(3) Uani 1 1 d . . .
C1 C 1.0001(3) 0.6632(3) 0.4477(4) 0.0611(17) Uani 1 1 d . . .
H1C H 0.9687 0.6738 0.4582 0.073 Uiso 1 1 calc R . .
H1D H 1.0151 0.6746 0.3797 0.073 Uiso 1 1 calc R . .
Cl3 Cl 1.03437(6) 0.69073(7) 0.17876(10) 0.0558(4) Uani 1 1 d . . .
Cl4 Cl 0.98907(9) 0.67836(8) -0.01955(12) 0.0714(5) Uani 1 1 d . . .
C2 C 0.9927(2) 0.6424(2) 0.0837(4) 0.0403(11) Uani 1 1 d . . .
H2A H 1.0105 0.6177 0.0659 0.048 Uiso 1 1 calc R . .
H2B H 0.9519 0.6154 0.1077 0.048 Uiso 1 1 calc R . .
Cl5 Cl 0.9681(2) -0.0149(4) 0.5928(3) 0.0801(17) Uani 0.33 1 d P . .
C3 C 1.0201(15) 0.0338(12) 0.517(2) 0.036(7) Uiso 0.17 1 d P . .
Cl6 Cl 0.6559(3) 0.3546(3) 1.0555(3) 0.0746(15) Uani 0.33 1 d P . .
Cl7 Cl 0.6866(3) 0.3657(2) 0.8705(3) 0.0723(15) Uani 0.33 1 d P . .
C4 C 0.6854(12) 0.3668(10) 0.937(2) 0.085(7) Uiso 0.33 1 d P . .

loop_
_atom_site_aniso_label
_atom_site_aniso_U_11
_atom_site_aniso_U_22
_atom_site_aniso_U_33
_atom_site_aniso_U_23
_atom_site_aniso_U_13
_atom_site_aniso_U_12
O1A 0.0213(13) 0.0225(13) 0.0081(10) -0.0003(9) 0.0021(9) 0.0158(11)
O2A 0.054(2) 0.057(2) 0.0162(13) 0.0041(13) 0.0047(13) 0.0497(18)
O3A 0.0305(15) 0.0305(15) 0.0096(11) -0.0005(10) -0.0024(10) 0.0245(13)
C1A 0.0204(18) 0.0244(19) 0.0126(16) -0.0017(13) 0.0050(13) 0.0162(16)
C2A 0.0262(19) 0.0227(18) 0.0119(15) 0.0000(13) 0.0027(13) 0.0196(16)
C3A 0.0240(19) 0.0163(17) 0.0147(16) -0.0055(13) -0.0053(13) 0.0144(15)
C4A 0.0239(19) 0.0171(17) 0.0138(16) 0.0013(13) 0.0037(14) 0.0151(15)
C5A 0.0200(17) 0.0221(18) 0.0097(15) -0.0010(13) 0.0003(13) 0.0176(15)
C6A 0.0189(17) 0.0239(18) 0.0139(15) -0.0026(13) -0.0004(13) 0.0172(15)
C7A 0.0181(18) 0.031(2) 0.0110(15) 0.0037(14) 0.0010(13) 0.0161(17)
C8A 0.0270(19) 0.029(2) 0.0099(14) -0.0014(14) -0.0006(14) 0.0222(17)
C9A 0.035(2) 0.031(2) 0.0110(16) -0.0007(15) -0.0057(15) 0.0221(18)
C10A 0.045(3) 0.033(2) 0.0233(19) 0.0040(17) -0.0044(18) 0.023(2)
C11A 0.034(2) 0.036(2) 0.0126(17) 0.0007(16) 0.0020(16) 0.0174(19)
C12A 0.033(2) 0.040(2) 0.0142(18) -0.0011(17) -0.0033(16) 0.014(2)
C13A 0.034(2) 0.035(2) 0.0157(17) 0.0006(15) -0.0063(16) 0.028(2)
C14A 0.039(3) 0.065(4) 0.041(3) 0.006(2) -0.010(2) 0.033(3)
C15A 0.070(3) 0.046(3) 0.026(2) -0.0034(19) -0.012(2) 0.044(3)
C16A 0.067(3) 0.060(3) 0.0121(18) -0.0001(19) -0.0037(19) 0.050(3)
O1B 0.0167(12) 0.0080(11) 0.0064(10) 0.0039(8) 0.0013(9) 0.0036(9)
O2B 0.0259(14) 0.0099(12) 0.0156(12) -0.0006(10) -0.0015(10) 0.0010(11)
O3B 0.0293(14) 0.0103(12) 0.0067(10) 0.0040(9) 0.0018(10) 0.0072(11)
O4B 0.0208(13) 0.0180(12) 0.0084(10) 0.0010(9) 0.0001(9) 0.0127(11)
O5B 0.0299(14) 0.0235(13) 0.0122(11) 0.0012(10) -0.0002(10) 0.0199(12)
O6B 0.0235(13) 0.0204(13) 0.0123(11) -0.0017(10) -0.0015(10) 0.0154(11)
C1B 0.0161(16) 0.0098(15) 0.0077(14) -0.0023(11) -0.0023(12) 0.0055(13)
C2B 0.0171(17) 0.0071(15) 0.0111(14) -0.0010(12) -0.0019(13) 0.0044(13)
C3B 0.0161(16) 0.0135(16) 0.0106(15) -0.0028(12) -0.0025(12) 0.0074(14)
C4B 0.0133(16) 0.0073(15) 0.0112(14) -0.0022(12) -0.0037(12) 0.0020(13)
C5B 0.0153(16) 0.0087(14) 0.0065(14) 0.0010(12) -0.0012(12) 0.0025(13)
C6B 0.0166(17) 0.0073(15) 0.0105(15) -0.0011(12) -0.0023(12) 0.0033(13)
C7B 0.0191(17) 0.0120(16) 0.0117(15) -0.0013(12) -0.0024(13) 0.0093(14)
C8B 0.0197(17) 0.0138(16) 0.0094(14) 0.0016(12) -0.0025(13) 0.0093(14)
C9B 0.0146(16) 0.0161(16) 0.0111(15) 0.0025(13) 0.0012(13) 0.0077(14)
C10B 0.0209(18) 0.0133(16) 0.0081(14) 0.0010(12) -0.0010(12) 0.0110(14)
C11B 0.0157(16) 0.0161(17) 0.0117(15) -0.0009(13) -0.0036(13) 0.0089(14)
C12B 0.0155(17) 0.0161(17) 0.0122(15) 0.0034(13) -0.0002(13) 0.0102(14)
C13B 0.0186(17) 0.0169(16) 0.0078(14) -0.0010(12) -0.0015(13) 0.0137(14)
C14B 0.0138(16) 0.0177(17) 0.0147(16) -0.0011(13) -0.0001(13) 0.0101(14)
C15B 0.0159(17) 0.0150(16) 0.0095(14) 0.0004(13) -0.0024(12) 0.0066(14)
C16B 0.0137(16) 0.0156(16) 0.0128(15) -0.0034(13) -0.0029(13) 0.0082(14)
C17B 0.0189(17) 0.0152(17) 0.0078(15) 0.0019(12) -0.0010(12) 0.0078(14)
C18B 0.032(2) 0.029(2) 0.0117(15) 0.0059(14) 0.0050(15) 0.0183(18)
C19B 0.038(2) 0.0196(19) 0.0142(16) 0.0058(14) 0.0027(16) 0.0148(18)
C20B 0.029(2) 0.033(2) 0.0088(16) 0.0014(15) -0.0041(14) 0.0126(18)
C21B 0.0180(18) 0.0239(19) 0.0096(15) 0.0005(13) -0.0005(13) 0.0106(15)
C22B 0.028(2) 0.033(2) 0.0184(17) -0.0005(16) 0.0030(15) 0.0211(18)
C23B 0.024(2) 0.024(2) 0.0123(16) 0.0017(14) -0.0012(14) 0.0105(17)
C24B 0.024(2) 0.032(2) 0.0094(15) -0.0040(15) -0.0011(14) 0.0077(17)
C25B 0.0273(19) 0.0134(17) 0.0131(16) 0.0050(13) 0.0051(14) 0.0100(15)
C26B 0.031(2) 0.0196(19) 0.0193(17) 0.0046(15) 0.0042(16) 0.0137(17)
C27B 0.049(3) 0.029(2) 0.0098(16) 0.0058(15) 0.0034(16) 0.022(2)
C28B 0.023(2) 0.025(2) 0.034(2) 0.0121(18) 0.0094(17) 0.0124(17)
C29B 0.030(2) 0.0240(19) 0.0121(16) -0.0008(14) 0.0026(14) 0.0184(17)
C30B 0.025(2) 0.029(2) 0.031(2) -0.0010(17) 0.0029(17) 0.0181(18)
C31B 0.041(2) 0.023(2) 0.0179(18) -0.0044(15) -0.0041(17) 0.0182(19)
C32B 0.041(2) 0.027(2) 0.0153(17) -0.0014(16) 0.0023(17) 0.0171(19)
Cl1 0.0458(7) 0.0372(6) 0.0539(7) -0.0068(6) 0.0039(6) 0.0201(6)
Cl2 0.0443(7) 0.0481(7) 0.0620(8) -0.0195(6) -0.0162(6) 0.0244(6)
C1 0.090(5) 0.062(4) 0.038(3) -0.003(3) -0.016(3) 0.043(4)
Cl3 0.0448(7) 0.0820(10) 0.0381(6) -0.0182(7) 0.0006(6) 0.0299(7)
Cl4 0.1038(14) 0.0720(11) 0.0472(8) -0.0034(7) -0.0170(8) 0.0506(10)
C2 0.033(3) 0.036(3) 0.041(3) -0.007(2) 0.004(2) 0.009(2)
Cl5 0.053(3) 0.126(5) 0.036(2) 0.007(3) 0.0159(18) 0.025(4)
Cl6 0.135(5) 0.105(5) 0.0242(16) -0.014(2) -0.001(3) 0.090(4)
Cl7 0.107(5) 0.055(3) 0.0251(18) 0.0143(16) 0.020(2) 0.018(3)

_geom_special_details            
;
All esds (except the esd in the dihedral angle between two l.s. planes)
are estimated using the full covariance matrix. The cell esds are taken
into account individually in the estimation of esds in distances, angles
and torsion angles; correlations between esds in cell parameters are only
used when they are defined by crystal symmetry. An approximate (isotropic)
treatment of cell esds is used for estimating esds involving l.s. planes.
;

loop_
_geom_bond_atom_site_label_1
_geom_bond_atom_site_label_2
_geom_bond_distance
_geom_bond_site_symmetry_2
_geom_bond_publ_flag
O1A C8A 1.338(4) . ?
O1A C5A 1.414(4) . ?
O2A C8A 1.202(4) . ?
O3A C8A 1.329(4) . ?
O3A C13A 1.484(4) . ?
C1A C6A 1.390(5) . ?
C1A C2A 1.390(5) . ?
C1A H1A 0.9500 . ?
C2A C3A 1.390(5) . ?
C2A C9A 1.545(5) . ?
C3A C4A 1.397(5) . ?
C3A H3A 0.9500 . ?
C4A C5A 1.388(5) . ?
C4A C7A 1.515(5) 5_666 ?
C5A C6A 1.387(5) . ?
C6A C7A 1.526(5) . ?
C7A C4A 1.515(5) 6_546 ?
C7A H7A1 0.9900 . ?
C7A H7A2 0.9900 . ?
C9A C12A 1.505(6) . ?
C9A C11A 1.547(6) . ?
C9A C10A 1.549(6) . ?
C10A H10A 0.9800 . ?
C10A H10B 0.9800 . ?
C10A H10C 0.9800 . ?
C11A H11A 0.9800 . ?
C11A H11B 0.9800 . ?
C11A H11C 0.9800 . ?
C12A H12A 0.9800 . ?
C12A H12B 0.9800 . ?
C12A H12C 0.9800 . ?
C13A C15A 1.501(6) . ?
C13A C14A 1.517(7) . ?
C13A C16A 1.521(5) . ?
C14A H14A 0.9800 . ?
C14A H14B 0.9800 . ?
C14A H14C 0.9800 . ?
C15A H15A 0.9800 . ?
C15A H15B 0.9800 . ?
C15A H15C 0.9800 . ?
C16A H16A 0.9800 . ?
C16A H16B 0.9800 . ?
C16A H16C 0.9800 . ?
O1B C15B 1.354(4) . ?
O1B C5B 1.416(4) . ?
O2B C15B 1.204(4) . ?
O3B C15B 1.326(4) . ?
O3B C25B 1.492(4) . ?
O4B C16B 1.351(4) . ?
O4B C13B 1.414(4) . ?
O5B C16B 1.204(4) . ?
O6B C16B 1.332(4) . ?
O6B C29B 1.480(4) . ?
C1B C6B 1.398(4) . ?
C1B C2B 1.406(5) . ?
C1B H1B 0.9500 . ?
C2B C3B 1.384(5) . ?
C2B C17B 1.531(4) . ?
C3B C4B 1.400(4) . ?
C3B H3B 0.9500 . ?
C4B C5B 1.398(5) . ?
C4B C14B 1.518(5) 3_665 ?
C5B C6B 1.376(5) . ?
C6B C7B 1.527(5) . ?
C7B C8B 1.520(5) . ?
C7B H7B1 0.9900 . ?
C7B H7B2 0.9900 . ?
C8B C13B 1.393(5) . ?
C8B C9B 1.397(4) . ?
C9B C10B 1.402(5) . ?
C9B H9B 0.9500 . ?
C10B C11B 1.380(5) . ?
C10B C21B 1.539(4) . ?
C11B C12B 1.410(5) . ?
C11B H11D 0.9500 . ?
C12B C13B 1.389(5) . ?
C12B C14B 1.522(5) . ?
C14B C4B 1.518(5) 2_655 ?
C14B H14D 0.9900 . ?
C14B H14E 0.9900 . ?
C17B C18B 1.521(5) . ?
C17B C20B 1.537(5) . ?
C17B C19B 1.549(5) . ?
C18B H18A 0.9800 . ?
C18B H18B 0.9800 . ?
C18B H18C 0.9800 . ?
C19B H19A 0.9800 . ?
C19B H19B 0.9800 . ?
C19B H19C 0.9800 . ?
C20B H20A 0.9800 . ?
C20B H20B 0.9800 . ?
C20B H20C 0.9800 . ?
C21B C24B 1.517(5) . ?
C21B C23B 1.531(5) . ?
C21B C22B 1.545(5) . ?
C22B H22A 0.9800 . ?
C22B H22B 0.9800 . ?
C22B H22C 0.9800 . ?
C23B H23A 0.9800 . ?
C23B H23B 0.9800 . ?
C23B H23C 0.9800 . ?
C24B H24A 0.9800 . ?
C24B H24B 0.9800 . ?
C24B H24C 0.9800 . ?
C25B C26B 1.506(5) . ?
C25B C27B 1.521(5) . ?
C25B C28B 1.524(6) . ?
C26B H26A 0.9800 . ?
C26B H26B 0.9800 . ?
C26B H26C 0.9800 . ?
C27B H27A 0.9800 . ?
C27B H27B 0.9800 . ?
C27B H27C 0.9800 . ?
C28B H28A 0.9800 . ?
C28B H28B 0.9800 . ?
C28B H28C 0.9800 . ?
C29B C31B 1.507(5) . ?
C29B C30B 1.530(6) . ?
C29B C32B 1.534(5) . ?
C30B H30A 0.9800 . ?
C30B H30B 0.9800 . ?
C30B H30C 0.9800 . ?
C31B H31A 0.9800 . ?
C31B H31B 0.9800 . ?
C31B H31C 0.9800 . ?
C32B H32A 0.9800 . ?
C32B H32B 0.9800 . ?
C32B H32C 0.9800 . ?
Cl1 C1 1.780(6) . ?
Cl2 C1 1.757(6) . ?
C1 H1C 0.9900 . ?
C1 H1D 0.9900 . ?
Cl3 C2 1.750(5) . ?
Cl4 C2 1.716(6) . ?
C2 H2A 0.9900 . ?
C2 H2B 0.9900 . ?
Cl5 C3 1.03(3) 2_645 ?
Cl5 Cl5 1.244(8) 2_645 ?
Cl5 Cl5 1.244(8) 3_765 ?
Cl5 C3 1.63(3) 3_765 ?
Cl5 C3 1.65(3) 4_756 ?
Cl5 C3 1.67(3) . ?
Cl5 C3 1.69(3) 6_546 ?
Cl5 C3 2.10(3) 5_666 ?
C3 C3 0.89(3) 5_666 ?
C3 C3 0.89(3) 6_546 ?
C3 Cl5 1.03(3) 3_765 ?
C3 C3 1.32(5) 2_645 ?
C3 C3 1.32(5) 3_765 ?
C3 C3 1.60(5) 4_756 ?
C3 Cl5 1.63(3) 2_645 ?
C3 Cl5 1.65(3) 4_756 ?
C3 Cl5 1.69(3) 5_666 ?
C3 Cl5 2.10(3) 6_546 ?
Cl6 Cl6 1.270(8) 3_665 ?
Cl6 Cl6 1.271(8) 2_655 ?
Cl6 C4 1.75(3) . ?
Cl6 C4 1.81(3) 2_655 ?
Cl6 C4 2.20(3) 3_665 ?
Cl7 C4 0.90(3) . ?
Cl7 Cl7 1.274(8) 3_665 ?
Cl7 Cl7 1.274(8) 2_655 ?
Cl7 C4 1.55(3) 3_665 ?
Cl7 C4 1.59(3) 2_655 ?
C4 C4 1.31(4) 3_665 ?
C4 C4 1.31(4) 2_655 ?
C4 Cl7 1.55(3) 2_655 ?
C4 Cl7 1.59(3) 3_665 ?
C4 Cl6 1.81(3) 3_665 ?
C4 Cl6 2.20(3) 2_655 ?

loop_
_geom_angle_atom_site_label_1
_geom_angle_atom_site_label_2
_geom_angle_atom_site_label_3
_geom_angle
_geom_angle_site_symmetry_1
_geom_angle_site_symmetry_3
_geom_angle_publ_flag
C8A O1A C5A 117.8(3) . . ?
C8A O3A C13A 120.7(3) . . ?
C6A C1A C2A 122.1(3) . . ?
C6A C1A H1A 119.0 . . ?
C2A C1A H1A 119.0 . . ?
C3A C2A C1A 117.9(3) . . ?
C3A C2A C9A 123.0(3) . . ?
C1A C2A C9A 119.1(3) . . ?
C2A C3A C4A 122.0(3) . . ?
C2A C3A H3A 119.0 . . ?
C4A C3A H3A 119.0 . . ?
C5A C4A C3A 117.8(3) . . ?
C5A C4A C7A 120.4(3) . 5_666 ?
C3A C4A C7A 121.8(3) . 5_666 ?
C6A C5A C4A 122.2(3) . . ?
C6A C5A O1A 119.4(3) . . ?
C4A C5A O1A 118.3(3) . . ?
C5A C6A C1A 118.0(3) . . ?
C5A C6A C7A 121.5(3) . . ?
C1A C6A C7A 120.5(3) . . ?
C4A C7A C6A 114.9(3) 6_546 . ?
C4A C7A H7A1 108.5 6_546 . ?
C6A C7A H7A1 108.5 . . ?
C4A C7A H7A2 108.5 6_546 . ?
C6A C7A H7A2 108.5 . . ?
H7A1 C7A H7A2 107.5 . . ?
O2A C8A O3A 127.6(3) . . ?
O2A C8A O1A 125.6(3) . . ?
O3A C8A O1A 106.8(3) . . ?
C12A C9A C2A 112.4(3) . . ?
C12A C9A C11A 109.1(3) . . ?
C2A C9A C11A 110.0(3) . . ?
C12A C9A C10A 109.7(3) . . ?
C2A C9A C10A 107.8(3) . . ?
C11A C9A C10A 107.8(3) . . ?
C9A C10A H10A 109.5 . . ?
C9A C10A H10B 109.5 . . ?
H10A C10A H10B 109.5 . . ?
C9A C10A H10C 109.5 . . ?
H10A C10A H10C 109.5 . . ?
H10B C10A H10C 109.5 . . ?
C9A C11A H11A 109.5 . . ?
C9A C11A H11B 109.5 . . ?
H11A C11A H11B 109.5 . . ?
C9A C11A H11C 109.5 . . ?
H11A C11A H11C 109.5 . . ?
H11B C11A H11C 109.5 . . ?
C9A C12A H12A 109.5 . . ?
C9A C12A H12B 109.5 . . ?
H12A C12A H12B 109.5 . . ?
C9A C12A H12C 109.5 . . ?
H12A C12A H12C 109.5 . . ?
H12B C12A H12C 109.5 . . ?
O3A C13A C15A 109.5(3) . . ?
O3A C13A C14A 109.7(3) . . ?
C15A C13A C14A 113.5(4) . . ?
O3A C13A C16A 102.7(3) . . ?
C15A C13A C16A 111.0(4) . . ?
C14A C13A C16A 109.8(4) . . ?
C13A C14A H14A 109.5 . . ?
C13A C14A H14B 109.5 . . ?
H14A C14A H14B 109.5 . . ?
C13A C14A H14C 109.5 . . ?
H14A C14A H14C 109.5 . . ?
H14B C14A H14C 109.5 . . ?
C13A C15A H15A 109.5 . . ?
C13A C15A H15B 109.5 . . ?
H15A C15A H15B 109.5 . . ?
C13A C15A H15C 109.5 . . ?
H15A C15A H15C 109.5 . . ?
H15B C15A H15C 109.5 . . ?
C13A C16A H16A 109.5 . . ?
C13A C16A H16B 109.5 . . ?
H16A C16A H16B 109.5 . . ?
C13A C16A H16C 109.5 . . ?
H16A C16A H16C 109.5 . . ?
H16B C16A H16C 109.5 . . ?
C15B O1B C5B 117.0(2) . . ?
C15B O3B C25B 120.2(3) . . ?
C16B O4B C13B 116.3(3) . . ?
C16B O6B C29B 119.2(3) . . ?
C6B C1B C2B 121.2(3) . . ?
C6B C1B H1B 119.4 . . ?
C2B C1B H1B 119.4 . . ?
C3B C2B C1B 118.3(3) . . ?
C3B C2B C17B 119.5(3) . . ?
C1B C2B C17B 122.2(3) . . ?
C2B C3B C4B 122.3(3) . . ?
C2B C3B H3B 118.8 . . ?
C4B C3B H3B 118.8 . . ?
C5B C4B C3B 116.9(3) . . ?
C5B C4B C14B 120.3(3) . 3_665 ?
C3B C4B C14B 122.7(3) . 3_665 ?
C6B C5B C4B 123.1(3) . . ?
C6B C5B O1B 119.6(3) . . ?
C4B C5B O1B 117.2(3) . . ?
C5B C6B C1B 118.1(3) . . ?
C5B C6B C7B 121.0(3) . . ?
C1B C6B C7B 120.8(3) . . ?
C8B C7B C6B 114.5(3) . . ?
C8B C7B H7B1 108.6 . . ?
C6B C7B H7B1 108.6 . . ?
C8B C7B H7B2 108.6 . . ?
C6B C7B H7B2 108.6 . . ?
H7B1 C7B H7B2 107.6 . . ?
C13B C8B C9B 117.5(3) . . ?
C13B C8B C7B 120.7(3) . . ?
C9B C8B C7B 121.8(3) . . ?
C8B C9B C10B 121.6(3) . . ?
C8B C9B H9B 119.2 . . ?
C10B C9B H9B 119.2 . . ?
C11B C10B C9B 118.7(3) . . ?
C11B C10B C21B 122.8(3) . . ?
C9B C10B C21B 118.5(3) . . ?
C10B C11B C12B 121.9(3) . . ?
C10B C11B H11D 119.1 . . ?
C12B C11B H11D 119.1 . . ?
C13B C12B C11B 117.2(3) . . ?
C13B C12B C14B 121.2(3) . . ?
C11B C12B C14B 121.6(3) . . ?
C12B C13B C8B 123.1(3) . . ?
C12B C13B O4B 118.4(3) . . ?
C8B C13B O4B 118.5(3) . . ?
C4B C14B C12B 115.2(3) 2_655 . ?
C4B C14B H14D 108.5 2_655 . ?
C12B C14B H14D 108.5 . . ?
C4B C14B H14E 108.5 2_655 . ?
C12B C14B H14E 108.5 . . ?
H14D C14B H14E 107.5 . . ?
O2B C15B O3B 129.3(3) . . ?
O2B C15B O1B 125.4(3) . . ?
O3B C15B O1B 105.3(3) . . ?
O5B C16B O6B 129.3(3) . . ?
O5B C16B O4B 125.2(3) . . ?
O6B C16B O4B 105.6(3) . . ?
C18B C17B C2B 113.1(3) . . ?
C18B C17B C20B 108.9(3) . . ?
C2B C17B C20B 110.2(3) . . ?
C18B C17B C19B 108.2(3) . . ?
C2B C17B C19B 108.4(3) . . ?
C20B C17B C19B 107.9(3) . . ?
C17B C18B H18A 109.5 . . ?
C17B C18B H18B 109.5 . . ?
H18A C18B H18B 109.5 . . ?
C17B C18B H18C 109.5 . . ?
H18A C18B H18C 109.5 . . ?
H18B C18B H18C 109.5 . . ?
C17B C19B H19A 109.5 . . ?
C17B C19B H19B 109.5 . . ?
H19A C19B H19B 109.5 . . ?
C17B C19B H19C 109.5 . . ?
H19A C19B H19C 109.5 . . ?
H19B C19B H19C 109.5 . . ?
C17B C20B H20A 109.5 . . ?
C17B C20B H20B 109.5 . . ?
H20A C20B H20B 109.5 . . ?
C17B C20B H20C 109.5 . . ?
H20A C20B H20C 109.5 . . ?
H20B C20B H20C 109.5 . . ?
C24B C21B C23B 108.2(3) . . ?
C24B C21B C10B 112.2(3) . . ?
C23B C21B C10B 110.3(3) . . ?
C24B C21B C22B 108.9(3) . . ?
C23B C21B C22B 109.1(3) . . ?
C10B C21B C22B 108.2(3) . . ?
C21B C22B H22A 109.5 . . ?
C21B C22B H22B 109.5 . . ?
H22A C22B H22B 109.5 . . ?
C21B C22B H22C 109.5 . . ?
H22A C22B H22C 109.5 . . ?
H22B C22B H22C 109.5 . . ?
C21B C23B H23A 109.5 . . ?
C21B C23B H23B 109.5 . . ?
H23A C23B H23B 109.5 . . ?
C21B C23B H23C 109.5 . . ?
H23A C23B H23C 109.5 . . ?
H23B C23B H23C 109.5 . . ?
C21B C24B H24A 109.5 . . ?
C21B C24B H24B 109.5 . . ?
H24A C24B H24B 109.5 . . ?
C21B C24B H24C 109.5 . . ?
H24A C24B H24C 109.5 . . ?
H24B C24B H24C 109.5 . . ?
O3B C25B C26B 110.3(3) . . ?
O3B C25B C27B 101.4(3) . . ?
C26B C25B C27B 111.6(3) . . ?
O3B C25B C28B 108.9(3) . . ?
C26B C25B C28B 113.0(3) . . ?
C27B C25B C28B 111.1(3) . . ?
C25B C26B H26A 109.5 . . ?
C25B C26B H26B 109.5 . . ?
H26A C26B H26B 109.5 . . ?
C25B C26B H26C 109.5 . . ?
H26A C26B H26C 109.5 . . ?
H26B C26B H26C 109.5 . . ?
C25B C27B H27A 109.5 . . ?
C25B C27B H27B 109.5 . . ?
H27A C27B H27B 109.5 . . ?
C25B C27B H27C 109.5 . . ?
H27A C27B H27C 109.5 . . ?
H27B C27B H27C 109.5 . . ?
C25B C28B H28A 109.5 . . ?
C25B C28B H28B 109.5 . . ?
H28A C28B H28B 109.5 . . ?
C25B C28B H28C 109.5 . . ?
H28A C28B H28C 109.5 . . ?
H28B C28B H28C 109.5 . . ?
O6B C29B C31B 110.7(3) . . ?
O6B C29B C30B 108.4(3) . . ?
C31B C29B C30B 113.8(3) . . ?
O6B C29B C32B 101.0(3) . . ?
C31B C29B C32B 111.1(3) . . ?
C30B C29B C32B 111.1(3) . . ?
C29B C30B H30A 109.5 . . ?
C29B C30B H30B 109.5 . . ?
H30A C30B H30B 109.5 . . ?
C29B C30B H30C 109.5 . . ?
H30A C30B H30C 109.5 . . ?
H30B C30B H30C 109.5 . . ?
C29B C31B H31A 109.5 . . ?
C29B C31B H31B 109.5 . . ?
H31A C31B H31B 109.5 . . ?
C29B C31B H31C 109.5 . . ?
H31A C31B H31C 109.5 . . ?
H31B C31B H31C 109.5 . . ?
C29B C32B H32A 109.5 . . ?
C29B C32B H32B 109.5 . . ?
H32A C32B H32B 109.5 . . ?
C29B C32B H32C 109.5 . . ?
H32A C32B H32C 109.5 . . ?
H32B C32B H32C 109.5 . . ?
Cl2 C1 Cl1 111.5(3) . . ?
Cl2 C1 H1C 109.3 . . ?
Cl1 C1 H1C 109.3 . . ?
Cl2 C1 H1D 109.3 . . ?
Cl1 C1 H1D 109.3 . . ?
H1C C1 H1D 108.0 . . ?
Cl4 C2 Cl3 113.4(3) . . ?
Cl4 C2 H2A 108.9 . . ?
Cl3 C2 H2A 108.9 . . ?
Cl4 C2 H2B 108.9 . . ?
Cl3 C2 H2B 108.9 . . ?
H2A C2 H2B 107.7 . . ?
C3 Cl5 Cl5 93.7(17) 2_645 2_645 ?
C3 Cl5 Cl5 90.5(18) 2_645 3_765 ?
Cl5 Cl5 Cl5 60.005(2) 2_645 3_765 ?
C3 Cl5 C3 54(2) 2_645 3_765 ?
Cl5 Cl5 C3 39.5(10) 2_645 3_765 ?
Cl5 Cl5 C3 69.6(14) 3_765 3_765 ?
C3 Cl5 C3 28.8(15) 2_645 4_756 ?
Cl5 Cl5 C3 69.9(13) 2_645 4_756 ?
Cl5 Cl5 C3 92.3(11) 3_765 4_756 ?
C3 Cl5 C3 31.6(11) 3_765 4_756 ?
C3 Cl5 C3 52.5(19) 2_645 . ?
Cl5 Cl5 C3 66.0(13) 2_645 . ?
Cl5 Cl5 C3 38.2(9) 3_765 . ?
C3 Cl5 C3 47.4(12) 3_765 . ?
C3 Cl5 C3 57.6(15) 4_756 . ?
C3 Cl5 C3 26.6(15) 2_645 6_546 ?
Cl5 Cl5 C3 90.3(11) 2_645 6_546 ?
Cl5 Cl5 C3 66.3(13) 3_765 6_546 ?
C3 Cl5 C3 57.6(15) 3_765 6_546 ?
C3 Cl5 C3 46.8(18) 4_756 6_546 ?
C3 Cl5 C3 30.8(11) . 6_546 ?
C3 Cl5 C3 47(2) 2_645 5_666 ?
Cl5 Cl5 C3 51.5(9) 2_645 5_666 ?
Cl5 Cl5 C3 53.4(9) 3_765 5_666 ?
C3 Cl5 C3 23.5(7) 3_765 5_666 ?
C3 Cl5 C3 39.0(13) 4_756 5_666 ?
C3 Cl5 C3 24.0(7) . 5_666 ?
C3 Cl5 C3 39.0(13) 6_546 5_666 ?
C3 C3 C3 96(5) 5_666 6_546 ?
C3 C3 Cl5 122(4) 5_666 3_765 ?
C3 C3 Cl5 117(4) 6_546 3_765 ?
C3 C3 C3 89.994(17) 5_666 2_645 ?
C3 C3 C3 42(2) 6_546 2_645 ?
Cl5 C3 C3 86.2(18) 3_765 2_645 ?
C3 C3 C3 42(2) 5_666 3_765 ?
C3 C3 C3 90.008(11) 6_546 3_765 ?
Cl5 C3 C3 89.2(16) 3_765 3_765 ?
C3 C3 C3 59.998(5) 2_645 3_765 ?
C3 C3 C3 56.0(10) 5_666 4_756 ?
C3 C3 C3 56.0(10) 6_546 4_756 ?
Cl5 C3 C3 104(3) 3_765 4_756 ?
C3 C3 C3 34.0(9) 2_645 4_756 ?
C3 C3 C3 34.0(10) 3_765 4_756 ?
C3 C3 Cl5 75(3) 5_666 2_645 ?
C3 C3 Cl5 110(2) 6_546 2_645 ?
Cl5 C3 Cl5 49.9(14) 3_765 2_645 ?
C3 C3 Cl5 68.0(13) 2_645 2_645 ?
C3 C3 Cl5 39.4(10) 3_765 2_645 ?
C3 C3 Cl5 63(2) 4_756 2_645 ?
C3 C3 Cl5 34(3) 5_666 4_756 ?
C3 C3 Cl5 73(3) 6_546 4_756 ?
Cl5 C3 Cl5 156(3) 3_765 4_756 ?
C3 C3 Cl5 89.5(10) 2_645 4_756 ?
C3 C3 Cl5 68.3(15) 3_765 4_756 ?
C3 C3 Cl5 61.9(18) 4_756 4_756 ?
Cl5 C3 Cl5 106.7(18) 2_645 4_756 ?
C3 C3 Cl5 106(2) 5_666 . ?
C3 C3 Cl5 76(3) 6_546 . ?
Cl5 C3 Cl5 48.1(14) 3_765 . ?
C3 C3 Cl5 38.3(9) 2_645 . ?
C3 C3 Cl5 64.6(13) 3_765 . ?
C3 C3 Cl5 60.5(19) 4_756 . ?
Cl5 C3 Cl5 44.4(8) 2_645 . ?
Cl5 C3 Cl5 122.4(15) 4_756 . ?
C3 C3 Cl5 73(3) 5_666 5_666 ?
C3 C3 Cl5 31(3) 6_546 5_666 ?
Cl5 C3 Cl5 148(3) 3_765 5_666 ?
C3 C3 Cl5 65.0(15) 2_645 5_666 ?
C3 C3 Cl5 87.7(11) 3_765 5_666 ?
C3 C3 Cl5 59.3(18) 4_756 5_666 ?
Cl5 C3 Cl5 122.4(15) 2_645 5_666 ?
Cl5 C3 Cl5 43.8(8) 4_756 5_666 ?
Cl5 C3 Cl5 102.9(17) . 5_666 ?
C3 C3 Cl5 47(2) 5_666 6_546 ?
C3 C3 Cl5 50(2) 6_546 6_546 ?
Cl5 C3 Cl5 133(2) 3_765 6_546 ?
C3 C3 Cl5 53.3(9) 2_645 6_546 ?
C3 C3 Cl5 51.5(9) 3_765 6_546 ?
C3 C3 Cl5 28.5(14) 4_756 6_546 ?
Cl5 C3 Cl5 88.5(12) 2_645 6_546 ?
Cl5 C3 Cl5 36.2(6) 4_756 6_546 ?
Cl5 C3 Cl5 87.4(11) . 6_546 ?
Cl5 C3 Cl5 36.3(6) 5_666 6_546 ?
Cl6 Cl6 Cl6 60.002(3) 3_665 2_655 ?
Cl6 Cl6 C4 71.8(10) 3_665 . ?
Cl6 Cl6 C4 91.9(8) 2_655 . ?
Cl6 Cl6 C4 89.0(8) 3_665 2_655 ?
Cl6 Cl6 C4 66.4(10) 2_655 2_655 ?
C4 Cl6 C4 43.1(14) . 2_655 ?
Cl6 Cl6 C4 52.7(7) 3_665 3_665 ?
Cl6 Cl6 C4 55.6(7) 2_655 3_665 ?
C4 Cl6 C4 36.6(11) . 3_665 ?
C4 Cl6 C4 36.5(11) 2_655 3_665 ?
C4 Cl7 Cl7 92.6(16) . 3_665 ?
C4 Cl7 Cl7 89.5(17) . 2_655 ?
Cl7 Cl7 Cl7 60.000(3) 3_665 2_655 ?
C4 Cl7 C4 57(2) . 3_665 ?
Cl7 Cl7 C4 35.4(10) 3_665 3_665 ?
Cl7 Cl7 C4 67.7(11) 2_655 3_665 ?
C4 Cl7 C4 55(2) . 2_655 ?
Cl7 Cl7 C4 64.5(11) 3_665 2_655 ?
Cl7 Cl7 C4 34.4(10) 2_655 2_655 ?
C4 Cl7 C4 49.1(12) 3_665 2_655 ?
Cl7 C4 C4 87.3(17) . 3_665 ?
Cl7 C4 C4 90.3(16) . 2_655 ?
C4 C4 C4 60.00(2) 3_665 2_655 ?
Cl7 C4 Cl7 55.1(14) . 2_655 ?
C4 C4 Cl7 67.0(12) 3_665 2_655 ?
C4 C4 Cl7 35.4(10) 2_655 2_655 ?
Cl7 C4 Cl7 53.0(14) . 3_665 ?
C4 C4 Cl7 34.4(9) 3_665 3_665 ?
C4 C4 Cl7 63.9(12) 2_655 3_665 ?
Cl7 C4 Cl7 47.8(8) 2_655 3_665 ?
Cl7 C4 Cl6 159(3) . . ?
C4 C4 Cl6 90.7(8) 3_665 . ?
C4 C4 Cl6 71.1(11) 2_655 . ?
Cl7 C4 Cl6 105.5(15) 2_655 . ?
Cl7 C4 Cl6 121.3(15) 3_665 . ?
Cl7 C4 Cl6 150(3) . 3_665 ?
C4 C4 Cl6 65.8(11) 3_665 3_665 ?
C4 C4 Cl6 87.9(8) 2_655 3_665 ?
Cl7 C4 Cl6 119.6(14) 2_655 3_665 ?
Cl7 C4 Cl6 99.9(14) 3_665 3_665 ?
Cl6 C4 Cl6 41.7(7) . 3_665 ?
Cl7 C4 Cl6 136(2) . 2_655 ?
C4 C4 Cl6 55.6(7) 3_665 2_655 ?
C4 C4 Cl6 52.8(7) 2_655 2_655 ?
Cl7 C4 Cl6 86.5(11) 2_655 2_655 ?
Cl7 C4 Cl6 86.4(11) 3_665 2_655 ?
Cl6 C4 Cl6 35.3(5) . 2_655 ?
Cl6 C4 Cl6 35.3(5) 3_665 2_655 ?

_diffrn_measured_fraction_theta_max 0.978
_diffrn_reflns_theta_full        30.01
_diffrn_measured_fraction_theta_full 0.978
_refine_diff_density_max         0.565
_refine_diff_density_min         -0.878
_refine_diff_density_rms         0.137
#===END

